; This file was automatically generated by SMTLIBGenerator
; Generation time: 2025-05-16 00:17:37

(set-logic QF_LIA)

; Variable declarations
(declare-const x0 Int)
(declare-const x1 Int)
(declare-const x2 Bool)
(declare-const x3 Int)
(declare-const x4 Bool)
(declare-const x5 Bool)
(declare-const x6 Bool)
(declare-const x7 Bool)

; Constraints
(assert x2)
(assert (<= (- (+ x3 (- 42))) 47))
(assert x4)
(assert (and x6 (and (not x5) true)))
(assert (or (or x6 (or x4 x7)) true))

; Check satisfiability
(check-sat)
(get-model)
(exit)
